p cnf 837 1401              
1 -241 0
17 -241 0
2 -249 0
25 -249 0
3 -257 0
33 -257 0
4 -265 0
41 -265 0
5 -273 0
49 -273 0
6 -281 0
57 -281 0
7 -289 0
65 -289 0
8 -297 0
73 -297 0
241 249 257 265 273 281 289 297 -305 0
305 385 0
-9 -17 313 0
-313 377 0
-10 -25 321 0
-321 377 0
-11 -33 329 0
-329 377 0
-12 -41 337 0
-337 377 0
-13 -49 345 0
-345 377 0
-14 -57 353 0
-353 377 0
-15 -65 361 0
-361 377 0
-16 -73 369 0
-369 377 0
-377 385 0
1 -242 0
18 -242 0
2 -250 0
26 -250 0
3 -258 0
34 -258 0
4 -266 0
42 -266 0
5 -274 0
50 -274 0
6 -282 0
58 -282 0
7 -290 0
66 -290 0
8 -298 0
74 -298 0
242 250 258 266 274 282 290 298 -306 0
306 386 0
-9 -18 314 0
-314 378 0
-10 -26 322 0
-322 378 0
-11 -34 330 0
-330 378 0
-12 -42 338 0
-338 378 0
-13 -50 346 0
-346 378 0
-14 -58 354 0
-354 378 0
-15 -66 362 0
-362 378 0
-16 -74 370 0
-370 378 0
-378 386 0
1 -243 0
19 -243 0
2 -251 0
27 -251 0
3 -259 0
35 -259 0
4 -267 0
43 -267 0
5 -275 0
51 -275 0
6 -283 0
59 -283 0
7 -291 0
67 -291 0
8 -299 0
75 -299 0
243 251 259 267 275 283 291 299 -307 0
307 387 0
-9 -19 315 0
-315 379 0
-10 -27 323 0
-323 379 0
-11 -35 331 0
-331 379 0
-12 -43 339 0
-339 379 0
-13 -51 347 0
-347 379 0
-14 -59 355 0
-355 379 0
-15 -67 363 0
-363 379 0
-16 -75 371 0
-371 379 0
-379 387 0
1 -244 0
20 -244 0
2 -252 0
28 -252 0
3 -260 0
36 -260 0
4 -268 0
44 -268 0
5 -276 0
52 -276 0
6 -284 0
60 -284 0
7 -292 0
68 -292 0
8 -300 0
76 -300 0
244 252 260 268 276 284 292 300 -308 0
308 388 0
-9 -20 316 0
-316 380 0
-10 -28 324 0
-324 380 0
-11 -36 332 0
-332 380 0
-12 -44 340 0
-340 380 0
-13 -52 348 0
-348 380 0
-14 -60 356 0
-356 380 0
-15 -68 364 0
-364 380 0
-16 -76 372 0
-372 380 0
-380 388 0
1 -245 0
21 -245 0
2 -253 0
29 -253 0
3 -261 0
37 -261 0
4 -269 0
45 -269 0
5 -277 0
53 -277 0
6 -285 0
61 -285 0
7 -293 0
69 -293 0
8 -301 0
77 -301 0
245 253 261 269 277 285 293 301 -309 0
309 389 0
-9 -21 317 0
-317 381 0
-10 -29 325 0
-325 381 0
-11 -37 333 0
-333 381 0
-12 -45 341 0
-341 381 0
-13 -53 349 0
-349 381 0
-14 -61 357 0
-357 381 0
-15 -69 365 0
-365 381 0
-16 -77 373 0
-373 381 0
-381 389 0
1 -246 0
22 -246 0
2 -254 0
30 -254 0
3 -262 0
38 -262 0
4 -270 0
46 -270 0
5 -278 0
54 -278 0
6 -286 0
62 -286 0
7 -294 0
70 -294 0
8 -302 0
78 -302 0
246 254 262 270 278 286 294 302 -310 0
310 390 0
-9 -22 318 0
-318 382 0
-10 -30 326 0
-326 382 0
-11 -38 334 0
-334 382 0
-12 -46 342 0
-342 382 0
-13 -54 350 0
-350 382 0
-14 -62 358 0
-358 382 0
-15 -70 366 0
-366 382 0
-16 -78 374 0
-374 382 0
-382 390 0
1 -247 0
23 -247 0
2 -255 0
31 -255 0
3 -263 0
39 -263 0
4 -271 0
47 -271 0
5 -279 0
55 -279 0
6 -287 0
63 -287 0
7 -295 0
71 -295 0
8 -303 0
79 -303 0
247 255 263 271 279 287 295 303 -311 0
311 391 0
-9 -23 319 0
-319 383 0
-10 -31 327 0
-327 383 0
-11 -39 335 0
-335 383 0
-12 -47 343 0
-343 383 0
-13 -55 351 0
-351 383 0
-14 -63 359 0
-359 383 0
-15 -71 367 0
-367 383 0
-16 -79 375 0
-375 383 0
-383 391 0
1 -248 0
24 -248 0
2 -256 0
32 -256 0
3 -264 0
40 -264 0
4 -272 0
48 -272 0
5 -280 0
56 -280 0
6 -288 0
64 -288 0
7 -296 0
72 -296 0
8 -304 0
80 -304 0
248 256 264 272 280 288 296 304 -312 0
312 392 0
-9 -24 320 0
-320 384 0
-10 -32 328 0
-328 384 0
-11 -40 336 0
-336 384 0
-12 -48 344 0
-344 384 0
-13 -56 352 0
-352 384 0
-14 -64 360 0
-360 384 0
-15 -72 368 0
-368 384 0
-16 -80 376 0
-376 384 0
-384 392 0
-385 -386 -387 -388 -389 -390 -391 -392 393 0
-393 -394 0
-2 -1 -81 0
81 -95 0
-1 82 0
-2 82 0
1 2 -82 0
-82 -3 -83 0
83 -95 0
-3 84 0
-82 84 0
3 82 -84 0
-84 -4 -85 0
85 -95 0
-4 86 0
-84 86 0
4 84 -86 0
-86 -5 -87 0
87 -95 0
-5 88 0
-86 88 0
5 86 -88 0
-88 -6 -89 0
89 -95 0
-6 90 0
-88 90 0
6 88 -90 0
-90 -7 -91 0
91 -95 0
-7 92 0
-90 92 0
7 90 -92 0
-92 -8 -93 0
93 -95 0
8 92 -94 0
94 -95 0
95 -394 0
-10 -9 -96 0
96 -110 0
-9 97 0
-10 97 0
9 10 -97 0
-97 -11 -98 0
98 -110 0
-11 99 0
-97 99 0
11 97 -99 0
-99 -12 -100 0
100 -110 0
-12 101 0
-99 101 0
12 99 -101 0
-101 -13 -102 0
102 -110 0
-13 103 0
-101 103 0
13 101 -103 0
-103 -14 -104 0
104 -110 0
-14 105 0
-103 105 0
14 103 -105 0
-105 -15 -106 0
106 -110 0
-15 107 0
-105 107 0
15 105 -107 0
-107 -16 -108 0
108 -110 0
16 107 -109 0
109 -110 0
110 -394 0
-18 -17 -111 0
111 -125 0
-17 112 0
-18 112 0
17 18 -112 0
-112 -19 -113 0
113 -125 0
-19 114 0
-112 114 0
19 112 -114 0
-114 -20 -115 0
115 -125 0
-20 116 0
-114 116 0
20 114 -116 0
-116 -21 -117 0
117 -125 0
-21 118 0
-116 118 0
21 116 -118 0
-118 -22 -119 0
119 -125 0
-22 120 0
-118 120 0
22 118 -120 0
-120 -23 -121 0
121 -125 0
-23 122 0
-120 122 0
23 120 -122 0
-122 -24 -123 0
123 -125 0
24 122 -124 0
124 -125 0
125 -231 0
-26 -25 -126 0
126 -140 0
-25 127 0
-26 127 0
25 26 -127 0
-127 -27 -128 0
128 -140 0
-27 129 0
-127 129 0
27 127 -129 0
-129 -28 -130 0
130 -140 0
-28 131 0
-129 131 0
28 129 -131 0
-131 -29 -132 0
132 -140 0
-29 133 0
-131 133 0
29 131 -133 0
-133 -30 -134 0
134 -140 0
-30 135 0
-133 135 0
30 133 -135 0
-135 -31 -136 0
136 -140 0
-31 137 0
-135 137 0
31 135 -137 0
-137 -32 -138 0
138 -140 0
32 137 -139 0
139 -140 0
140 -231 0
-34 -33 -141 0
141 -155 0
-33 142 0
-34 142 0
33 34 -142 0
-142 -35 -143 0
143 -155 0
-35 144 0
-142 144 0
35 142 -144 0
-144 -36 -145 0
145 -155 0
-36 146 0
-144 146 0
36 144 -146 0
-146 -37 -147 0
147 -155 0
-37 148 0
-146 148 0
37 146 -148 0
-148 -38 -149 0
149 -155 0
-38 150 0
-148 150 0
38 148 -150 0
-150 -39 -151 0
151 -155 0
-39 152 0
-150 152 0
39 150 -152 0
-152 -40 -153 0
153 -155 0
40 152 -154 0
154 -155 0
155 -231 0
-42 -41 -156 0
156 -170 0
-41 157 0
-42 157 0
41 42 -157 0
-157 -43 -158 0
158 -170 0
-43 159 0
-157 159 0
43 157 -159 0
-159 -44 -160 0
160 -170 0
-44 161 0
-159 161 0
44 159 -161 0
-161 -45 -162 0
162 -170 0
-45 163 0
-161 163 0
45 161 -163 0
-163 -46 -164 0
164 -170 0
-46 165 0
-163 165 0
46 163 -165 0
-165 -47 -166 0
166 -170 0
-47 167 0
-165 167 0
47 165 -167 0
-167 -48 -168 0
168 -170 0
48 167 -169 0
169 -170 0
170 -231 0
-50 -49 -171 0
171 -185 0
-49 172 0
-50 172 0
49 50 -172 0
-172 -51 -173 0
173 -185 0
-51 174 0
-172 174 0
51 172 -174 0
-174 -52 -175 0
175 -185 0
-52 176 0
-174 176 0
52 174 -176 0
-176 -53 -177 0
177 -185 0
-53 178 0
-176 178 0
53 176 -178 0
-178 -54 -179 0
179 -185 0
-54 180 0
-178 180 0
54 178 -180 0
-180 -55 -181 0
181 -185 0
-55 182 0
-180 182 0
55 180 -182 0
-182 -56 -183 0
183 -185 0
56 182 -184 0
184 -185 0
185 -231 0
-58 -57 -186 0
186 -200 0
-57 187 0
-58 187 0
57 58 -187 0
-187 -59 -188 0
188 -200 0
-59 189 0
-187 189 0
59 187 -189 0
-189 -60 -190 0
190 -200 0
-60 191 0
-189 191 0
60 189 -191 0
-191 -61 -192 0
192 -200 0
-61 193 0
-191 193 0
61 191 -193 0
-193 -62 -194 0
194 -200 0
-62 195 0
-193 195 0
62 193 -195 0
-195 -63 -196 0
196 -200 0
-63 197 0
-195 197 0
63 195 -197 0
-197 -64 -198 0
198 -200 0
64 197 -199 0
199 -200 0
200 -231 0
-66 -65 -201 0
201 -215 0
-65 202 0
-66 202 0
65 66 -202 0
-202 -67 -203 0
203 -215 0
-67 204 0
-202 204 0
67 202 -204 0
-204 -68 -205 0
205 -215 0
-68 206 0
-204 206 0
68 204 -206 0
-206 -69 -207 0
207 -215 0
-69 208 0
-206 208 0
69 206 -208 0
-208 -70 -209 0
209 -215 0
-70 210 0
-208 210 0
70 208 -210 0
-210 -71 -211 0
211 -215 0
-71 212 0
-210 212 0
71 210 -212 0
-212 -72 -213 0
213 -215 0
72 212 -214 0
214 -215 0
215 -231 0
-74 -73 -216 0
216 -230 0
-73 217 0
-74 217 0
73 74 -217 0
-217 -75 -218 0
218 -230 0
-75 219 0
-217 219 0
75 217 -219 0
-219 -76 -220 0
220 -230 0
-76 221 0
-219 221 0
76 219 -221 0
-221 -77 -222 0
222 -230 0
-77 223 0
-221 223 0
77 221 -223 0
-223 -78 -224 0
224 -230 0
-78 225 0
-223 225 0
78 223 -225 0
-225 -79 -226 0
226 -230 0
-79 227 0
-225 227 0
79 225 -227 0
-227 -80 -228 0
228 -230 0
80 227 -229 0
229 -230 0
230 -231 0
231 -394 0
-1 9 -232 0
232 -240 0
-2 10 -233 0
233 -240 0
-3 11 -234 0
234 -240 0
-4 12 -235 0
235 -240 0
-5 13 -236 0
236 -240 0
-6 14 -237 0
237 -240 0
-7 15 -238 0
238 -240 0
-8 16 -239 0
239 -240 0
240 -394 0
-1 2 -395 0
395 -457 0
-1 -2 396 0
1 2 396 0
-2 2 396 0
-9 10 -397 0
-396 397 -398 0
398 -457 0
-9 -10 399 0
9 10 399 0
-10 10 399 0
-396 -399 400 0
-17 26 -401 0
-400 401 -402 0
402 -457 0
-17 -26 403 0
17 26 403 0
-26 26 403 0
-400 -403 404 0
-18 25 -405 0
-404 405 -406 0
406 -457 0
-18 -25 407 0
18 25 407 0
-25 25 407 0
-404 -407 408 0
-19 27 -409 0
-408 409 -410 0
410 -457 0
-19 -27 411 0
19 27 411 0
-27 27 411 0
-408 -411 412 0
-20 28 -413 0
-412 413 -414 0
414 -457 0
-20 -28 415 0
20 28 415 0
-28 28 415 0
-412 -415 416 0
-21 29 -417 0
-416 417 -418 0
418 -457 0
-21 -29 419 0
21 29 419 0
-29 29 419 0
-416 -419 420 0
-22 30 -421 0
-420 421 -422 0
422 -457 0
-22 -30 423 0
22 30 423 0
-30 30 423 0
-420 -423 424 0
-23 31 -425 0
-424 425 -426 0
426 -457 0
-23 -31 427 0
23 31 427 0
-31 31 427 0
-424 -427 428 0
-24 32 -429 0
-428 429 -430 0
430 -457 0
-24 -32 431 0
24 32 431 0
-32 32 431 0
-428 -431 432 0
-33 34 -433 0
-432 433 -434 0
434 -457 0
-33 -34 435 0
33 34 435 0
-34 34 435 0
-432 -435 436 0
-41 42 -437 0
-436 437 -438 0
438 -457 0
-41 -42 439 0
41 42 439 0
-42 42 439 0
-436 -439 440 0
-49 50 -441 0
-440 441 -442 0
442 -457 0
-49 -50 443 0
49 50 443 0
-50 50 443 0
-440 -443 444 0
-57 58 -445 0
-444 445 -446 0
446 -457 0
-57 -58 447 0
57 58 447 0
-58 58 447 0
-444 -447 448 0
-65 66 -449 0
-448 449 -450 0
450 -457 0
-65 -66 451 0
65 66 451 0
-66 66 451 0
-448 -451 452 0
-73 74 -453 0
-452 453 -454 0
454 -457 0
457 -836 0
-2 3 -458 0
458 -520 0
-2 -3 459 0
2 3 459 0
-3 3 459 0
-10 11 -460 0
-459 460 -461 0
461 -520 0
-10 -11 462 0
10 11 462 0
-11 11 462 0
-459 -462 463 0
-18 19 -464 0
-463 464 -465 0
465 -520 0
-18 -19 466 0
18 19 466 0
-19 19 466 0
-463 -466 467 0
-25 33 -468 0
-467 468 -469 0
469 -520 0
-25 -33 470 0
25 33 470 0
-33 33 470 0
-467 -470 471 0
-26 35 -472 0
-471 472 -473 0
473 -520 0
-26 -35 474 0
26 35 474 0
-35 35 474 0
-471 -474 475 0
-27 34 -476 0
-475 476 -477 0
477 -520 0
-27 -34 478 0
27 34 478 0
-34 34 478 0
-475 -478 479 0
-28 36 -480 0
-479 480 -481 0
481 -520 0
-28 -36 482 0
28 36 482 0
-36 36 482 0
-479 -482 483 0
-29 37 -484 0
-483 484 -485 0
485 -520 0
-29 -37 486 0
29 37 486 0
-37 37 486 0
-483 -486 487 0
-30 38 -488 0
-487 488 -489 0
489 -520 0
-30 -38 490 0
30 38 490 0
-38 38 490 0
-487 -490 491 0
-31 39 -492 0
-491 492 -493 0
493 -520 0
-31 -39 494 0
31 39 494 0
-39 39 494 0
-491 -494 495 0
-32 40 -496 0
-495 496 -497 0
497 -520 0
-32 -40 498 0
32 40 498 0
-40 40 498 0
-495 -498 499 0
-42 43 -500 0
-499 500 -501 0
501 -520 0
-42 -43 502 0
42 43 502 0
-43 43 502 0
-499 -502 503 0
-50 51 -504 0
-503 504 -505 0
505 -520 0
-50 -51 506 0
50 51 506 0
-51 51 506 0
-503 -506 507 0
-58 59 -508 0
-507 508 -509 0
509 -520 0
-58 -59 510 0
58 59 510 0
-59 59 510 0
-507 -510 511 0
-66 67 -512 0
-511 512 -513 0
513 -520 0
-66 -67 514 0
66 67 514 0
-67 67 514 0
-511 -514 515 0
-74 75 -516 0
-515 516 -517 0
517 -520 0
520 -836 0
-3 4 -521 0
521 -583 0
-3 -4 522 0
3 4 522 0
-4 4 522 0
-11 12 -523 0
-522 523 -524 0
524 -583 0
-11 -12 525 0
11 12 525 0
-12 12 525 0
-522 -525 526 0
-19 20 -527 0
-526 527 -528 0
528 -583 0
-19 -20 529 0
19 20 529 0
-20 20 529 0
-526 -529 530 0
-27 28 -531 0
-530 531 -532 0
532 -583 0
-27 -28 533 0
27 28 533 0
-28 28 533 0
-530 -533 534 0
-33 41 -535 0
-534 535 -536 0
536 -583 0
-33 -41 537 0
33 41 537 0
-41 41 537 0
-534 -537 538 0
-34 42 -539 0
-538 539 -540 0
540 -583 0
-34 -42 541 0
34 42 541 0
-42 42 541 0
-538 -541 542 0
-35 44 -543 0
-542 543 -544 0
544 -583 0
-35 -44 545 0
35 44 545 0
-44 44 545 0
-542 -545 546 0
-36 43 -547 0
-546 547 -548 0
548 -583 0
-36 -43 549 0
36 43 549 0
-43 43 549 0
-546 -549 550 0
-37 45 -551 0
-550 551 -552 0
552 -583 0
-37 -45 553 0
37 45 553 0
-45 45 553 0
-550 -553 554 0
-38 46 -555 0
-554 555 -556 0
556 -583 0
-38 -46 557 0
38 46 557 0
-46 46 557 0
-554 -557 558 0
-39 47 -559 0
-558 559 -560 0
560 -583 0
-39 -47 561 0
39 47 561 0
-47 47 561 0
-558 -561 562 0
-40 48 -563 0
-562 563 -564 0
564 -583 0
-40 -48 565 0
40 48 565 0
-48 48 565 0
-562 -565 566 0
-51 52 -567 0
-566 567 -568 0
568 -583 0
-51 -52 569 0
51 52 569 0
-52 52 569 0
-566 -569 570 0
-59 60 -571 0
-570 571 -572 0
572 -583 0
-59 -60 573 0
59 60 573 0
-60 60 573 0
-570 -573 574 0
-67 68 -575 0
-574 575 -576 0
576 -583 0
-67 -68 577 0
67 68 577 0
-68 68 577 0
-574 -577 578 0
-75 76 -579 0
-578 579 -580 0
580 -583 0
583 -836 0
-4 5 -584 0
584 -646 0
-4 -5 585 0
4 5 585 0
-5 5 585 0
-12 13 -586 0
-585 586 -587 0
587 -646 0
-12 -13 588 0
12 13 588 0
-13 13 588 0
-585 -588 589 0
-20 21 -590 0
-589 590 -591 0
591 -646 0
-20 -21 592 0
20 21 592 0
-21 21 592 0
-589 -592 593 0
-28 29 -594 0
-593 594 -595 0
595 -646 0
-28 -29 596 0
28 29 596 0
-29 29 596 0
-593 -596 597 0
-36 37 -598 0
-597 598 -599 0
599 -646 0
-36 -37 600 0
36 37 600 0
-37 37 600 0
-597 -600 601 0
-41 49 -602 0
-601 602 -603 0
603 -646 0
-41 -49 604 0
41 49 604 0
-49 49 604 0
-601 -604 605 0
-42 50 -606 0
-605 606 -607 0
607 -646 0
-42 -50 608 0
42 50 608 0
-50 50 608 0
-605 -608 609 0
-43 51 -610 0
-609 610 -611 0
611 -646 0
-43 -51 612 0
43 51 612 0
-51 51 612 0
-609 -612 613 0
-44 53 -614 0
-613 614 -615 0
615 -646 0
-44 -53 616 0
44 53 616 0
-53 53 616 0
-613 -616 617 0
-45 52 -618 0
-617 618 -619 0
619 -646 0
-45 -52 620 0
45 52 620 0
-52 52 620 0
-617 -620 621 0
-46 54 -622 0
-621 622 -623 0
623 -646 0
-46 -54 624 0
46 54 624 0
-54 54 624 0
-621 -624 625 0
-47 55 -626 0
-625 626 -627 0
627 -646 0
-47 -55 628 0
47 55 628 0
-55 55 628 0
-625 -628 629 0
-48 56 -630 0
-629 630 -631 0
631 -646 0
-48 -56 632 0
48 56 632 0
-56 56 632 0
-629 -632 633 0
-60 61 -634 0
-633 634 -635 0
635 -646 0
-60 -61 636 0
60 61 636 0
-61 61 636 0
-633 -636 637 0
-68 69 -638 0
-637 638 -639 0
639 -646 0
-68 -69 640 0
68 69 640 0
-69 69 640 0
-637 -640 641 0
-76 77 -642 0
-641 642 -643 0
643 -646 0
646 -836 0
-5 6 -647 0
647 -709 0
-5 -6 648 0
5 6 648 0
-6 6 648 0
-13 14 -649 0
-648 649 -650 0
650 -709 0
-13 -14 651 0
13 14 651 0
-14 14 651 0
-648 -651 652 0
-21 22 -653 0
-652 653 -654 0
654 -709 0
-21 -22 655 0
21 22 655 0
-22 22 655 0
-652 -655 656 0
-29 30 -657 0
-656 657 -658 0
658 -709 0
-29 -30 659 0
29 30 659 0
-30 30 659 0
-656 -659 660 0
-37 38 -661 0
-660 661 -662 0
662 -709 0
-37 -38 663 0
37 38 663 0
-38 38 663 0
-660 -663 664 0
-45 46 -665 0
-664 665 -666 0
666 -709 0
-45 -46 667 0
45 46 667 0
-46 46 667 0
-664 -667 668 0
-49 57 -669 0
-668 669 -670 0
670 -709 0
-49 -57 671 0
49 57 671 0
-57 57 671 0
-668 -671 672 0
-50 58 -673 0
-672 673 -674 0
674 -709 0
-50 -58 675 0
50 58 675 0
-58 58 675 0
-672 -675 676 0
-51 59 -677 0
-676 677 -678 0
678 -709 0
-51 -59 679 0
51 59 679 0
-59 59 679 0
-676 -679 680 0
-52 60 -681 0
-680 681 -682 0
682 -709 0
-52 -60 683 0
52 60 683 0
-60 60 683 0
-680 -683 684 0
-53 62 -685 0
-684 685 -686 0
686 -709 0
-53 -62 687 0
53 62 687 0
-62 62 687 0
-684 -687 688 0
-54 61 -689 0
-688 689 -690 0
690 -709 0
-54 -61 691 0
54 61 691 0
-61 61 691 0
-688 -691 692 0
-55 63 -693 0
-692 693 -694 0
694 -709 0
-55 -63 695 0
55 63 695 0
-63 63 695 0
-692 -695 696 0
-56 64 -697 0
-696 697 -698 0
698 -709 0
-56 -64 699 0
56 64 699 0
-64 64 699 0
-696 -699 700 0
-69 70 -701 0
-700 701 -702 0
702 -709 0
-69 -70 703 0
69 70 703 0
-70 70 703 0
-700 -703 704 0
-77 78 -705 0
-704 705 -706 0
706 -709 0
709 -836 0
-6 7 -710 0
710 -772 0
-6 -7 711 0
6 7 711 0
-7 7 711 0
-14 15 -712 0
-711 712 -713 0
713 -772 0
-14 -15 714 0
14 15 714 0
-15 15 714 0
-711 -714 715 0
-22 23 -716 0
-715 716 -717 0
717 -772 0
-22 -23 718 0
22 23 718 0
-23 23 718 0
-715 -718 719 0
-30 31 -720 0
-719 720 -721 0
721 -772 0
-30 -31 722 0
30 31 722 0
-31 31 722 0
-719 -722 723 0
-38 39 -724 0
-723 724 -725 0
725 -772 0
-38 -39 726 0
38 39 726 0
-39 39 726 0
-723 -726 727 0
-46 47 -728 0
-727 728 -729 0
729 -772 0
-46 -47 730 0
46 47 730 0
-47 47 730 0
-727 -730 731 0
-54 55 -732 0
-731 732 -733 0
733 -772 0
-54 -55 734 0
54 55 734 0
-55 55 734 0
-731 -734 735 0
-57 65 -736 0
-735 736 -737 0
737 -772 0
-57 -65 738 0
57 65 738 0
-65 65 738 0
-735 -738 739 0
-58 66 -740 0
-739 740 -741 0
741 -772 0
-58 -66 742 0
58 66 742 0
-66 66 742 0
-739 -742 743 0
-59 67 -744 0
-743 744 -745 0
745 -772 0
-59 -67 746 0
59 67 746 0
-67 67 746 0
-743 -746 747 0
-60 68 -748 0
-747 748 -749 0
749 -772 0
-60 -68 750 0
60 68 750 0
-68 68 750 0
-747 -750 751 0
-61 69 -752 0
-751 752 -753 0
753 -772 0
-61 -69 754 0
61 69 754 0
-69 69 754 0
-751 -754 755 0
-62 71 -756 0
-755 756 -757 0
757 -772 0
-62 -71 758 0
62 71 758 0
-71 71 758 0
-755 -758 759 0
-63 70 -760 0
-759 760 -761 0
761 -772 0
-63 -70 762 0
63 70 762 0
-70 70 762 0
-759 -762 763 0
-64 72 -764 0
-763 764 -765 0
765 -772 0
-64 -72 766 0
64 72 766 0
-72 72 766 0
-763 -766 767 0
-78 79 -768 0
-767 768 -769 0
769 -772 0
772 -836 0
-7 8 -773 0
773 -835 0
-7 -8 774 0
7 8 774 0
-8 8 774 0
-15 16 -775 0
-774 775 -776 0
776 -835 0
-15 -16 777 0
15 16 777 0
-16 16 777 0
-774 -777 778 0
-23 24 -779 0
-778 779 -780 0
780 -835 0
-23 -24 781 0
23 24 781 0
-24 24 781 0
-778 -781 782 0
-31 32 -783 0
-782 783 -784 0
784 -835 0
-31 -32 785 0
31 32 785 0
-32 32 785 0
-782 -785 786 0
-39 40 -787 0
-786 787 -788 0
788 -835 0
-39 -40 789 0
39 40 789 0
-40 40 789 0
-786 -789 790 0
-47 48 -791 0
-790 791 -792 0
792 -835 0
-47 -48 793 0
47 48 793 0
-48 48 793 0
-790 -793 794 0
-55 56 -795 0
-794 795 -796 0
796 -835 0
-55 -56 797 0
55 56 797 0
-56 56 797 0
-794 -797 798 0
-63 64 -799 0
-798 799 -800 0
800 -835 0
-63 -64 801 0
63 64 801 0
-64 64 801 0
-798 -801 802 0
-65 73 -803 0
-802 803 -804 0
804 -835 0
-65 -73 805 0
65 73 805 0
-73 73 805 0
-802 -805 806 0
-66 74 -807 0
-806 807 -808 0
808 -835 0
-66 -74 809 0
66 74 809 0
-74 74 809 0
-806 -809 810 0
-67 75 -811 0
-810 811 -812 0
812 -835 0
-67 -75 813 0
67 75 813 0
-75 75 813 0
-810 -813 814 0
-68 76 -815 0
-814 815 -816 0
816 -835 0
-68 -76 817 0
68 76 817 0
-76 76 817 0
-814 -817 818 0
-69 77 -819 0
-818 819 -820 0
820 -835 0
-69 -77 821 0
69 77 821 0
-77 77 821 0
-818 -821 822 0
-70 78 -823 0
-822 823 -824 0
824 -835 0
-70 -78 825 0
70 78 825 0
-78 78 825 0
-822 -825 826 0
-71 80 -827 0
-826 827 -828 0
828 -835 0
-71 -80 829 0
71 80 829 0
-80 80 829 0
-826 -829 830 0
-72 79 -831 0
-830 831 -832 0
832 -835 0
835 -836 0
394 0
836 0
